StringID Type x y demand ReadyTime DueDate ServiceTime
D0 d 40 50 0 0 960 0
Dt d 40 50 0 0 960 0
S0 f 40 50 0 0 960 0
S3 f 57 82 0 0 960 0
S19 f 77 30 0 0 960 0
C66 c3 41 37 16 383 905 10
C37 c2 65 82 10 59 632 10
C96 c3 55 54 26 142 532 10
C41 c3 58 75 20 73 561 10
C32 c3 87 30 10 69 539 10
P0 p 75 53 0 0 960 45
param Q := 77.75
param CV := 1000
param r := 1
param g := 0.39
param V := 1
